experiment/data/lkh-res/Vrp-Set-CMT-n200/Vrp-Set-CMT-n200-lkh/0.lkh1.vrp
NAME : 0
COMMENT : CVRP Instance
TYPE : CVRP
DIMENSION : 200
EDGE_WEIGHT_TYPE : EUC_2D
CAPACITY : 200
NODE_COORD_SECTION
1	3500	3500
2	2200	2200
3	3600	2600
4	2100	4500
5	4500	3500
6	5500	2000
7	3300	3400
8	5000	5000
9	5500	4500
10	2600	5900
11	4000	6600
12	5500	6500
13	3500	5100
14	6200	3500
15	6200	5700
16	6200	2400
17	2100	3600
18	3300	4400
19	900	5600
20	6200	4800
21	6600	1400
22	4400	1300
23	2600	1300
24	1100	2800
25	700	4300
26	1700	6400
27	4100	4600
28	5500	3400
29	3500	1600
30	5200	2600
31	4300	2600
32	3100	7600
33	2200	5300
34	2600	2900
35	5000	4000
36	5500	5000
37	5400	1000
38	6000	1500
39	4700	6600
40	3000	6000
41	3000	5000
42	1200	1700
43	1500	1400
44	1600	1900
45	2100	4800
46	5000	3000
47	5100	4200
48	5000	1500
49	4800	2100
50	1200	3800
51	3700	5200
52	4900	4900
53	5200	6400
54	2000	2600
55	4000	3000
56	2100	4700
57	1700	6300
58	3100	6200
59	5200	3300
60	5100	2100
61	4200	4100
62	3100	3200
63	500	2500
64	1200	4200
65	3600	1600
66	5200	4100
67	2700	2300
68	1700	3300
69	1300	1300
70	5700	5800
71	6200	4200
72	4200	5700
73	1600	5700
74	800	5200
75	700	3800
76	2700	6800
77	3000	4800
78	4300	6700
79	5800	4800
80	5800	2700
81	3700	6900
82	3800	4600
83	4600	1000
84	6100	3300
85	6200	6300
86	6300	6900
87	3200	2200
88	4500	3500
89	5900	1500
90	500	600
91	1000	1700
92	2100	1000
93	500	6400
94	3000	1500
95	3900	1000
96	3200	3900
97	2500	3200
98	2500	5500
99	4800	2800
100	5600	3700
101	4100	4900
102	3500	1700
103	5500	4500
104	5500	2000
105	1500	3000
106	2500	3000
107	2000	5000
108	1000	4300
109	5500	6000
110	3000	6000
111	2000	6500
112	5000	3500
113	3000	2500
114	1500	1000
115	3000	500
116	1000	2000
117	500	3000
118	2000	4000
119	1500	6000
120	4500	6500
121	4500	2000
122	4500	1000
123	5500	500
124	6500	3500
125	6500	2000
126	4500	3000
127	3500	4000
128	4100	3700
129	6400	4200
130	4000	6000
131	3100	5200
132	3500	6900
133	5300	5200
134	6500	5500
135	6300	6500
136	200	6000
137	2000	2000
138	500	500
139	6000	1200
140	4000	2500
141	4200	700
142	2400	1200
143	2300	300
144	1100	1400
145	600	3800
146	200	4800
147	800	5600
148	1300	5200
149	600	6800
150	4700	4700
151	4900	5800
152	2700	4300
153	3700	3100
154	5700	2900
155	6300	2300
156	5300	1200
157	3200	1200
158	3600	2600
159	2100	2400
160	1700	3400
161	1200	2400
162	2400	5800
163	2700	6900
164	1500	7700
165	6200	7700
166	4900	7300
167	6700	500
168	5600	3900
169	3700	4700
170	3700	5600
171	5700	6800
172	4700	1600
173	4400	1700
174	4600	1300
175	4900	1100
176	4900	4200
177	5300	4300
178	6100	5200
179	5700	4800
180	5600	3700
181	5500	5400
182	1500	4700
183	1400	3700
184	1100	3100
185	1600	2200
186	400	1800
187	2800	1800
188	2600	5200
189	2600	3500
190	3100	6700
191	1500	1900
192	2200	2200
193	1800	2400
194	2600	2700
195	2500	2400
196	2200	2700
197	2500	2100
198	1900	2100
199	2000	2600
200	1800	1800
DEMAND_SECTION
1	0
2	18
3	26
4	11
5	30
6	21
7	19
8	15
9	16
10	29
11	26
12	37
13	16
14	12
15	31
16	8
17	19
18	20
19	13
20	15
21	22
22	28
23	12
24	6
25	27
26	14
27	18
28	17
29	29
30	13
31	22
32	25
33	28
34	27
35	19
36	10
37	12
38	14
39	24
40	16
41	33
42	15
43	11
44	18
45	17
46	21
47	27
48	19
49	20
50	5
51	7
52	30
53	16
54	9
55	21
56	15
57	19
58	23
59	11
60	5
61	19
62	29
63	23
64	21
65	10
66	15
67	3
68	41
69	9
70	28
71	8
72	8
73	16
74	10
75	28
76	7
77	15
78	14
79	6
80	19
81	11
82	12
83	23
84	26
85	17
86	6
87	9
88	15
89	14
90	7
91	27
92	13
93	11
94	16
95	10
96	5
97	25
98	17
99	18
100	10
101	10
102	7
103	13
104	19
105	26
106	3
107	5
108	9
109	16
110	16
111	12
112	19
113	23
114	20
115	8
116	19
117	2
118	12
119	17
120	9
121	11
122	18
123	29
124	3
125	6
126	17
127	16
128	16
129	9
130	21
131	27
132	23
133	11
134	14
135	8
136	5
137	8
138	16
139	31
140	9
141	5
142	5
143	7
144	18
145	16
146	1
147	27
148	36
149	30
150	13
151	10
152	9
153	14
154	18
155	2
156	6
157	7
158	18
159	28
160	3
161	13
162	19
163	10
164	9
165	20
166	25
167	25
168	36
169	6
170	5
171	15
172	25
173	9
174	8
175	18
176	13
177	14
178	3
179	23
180	6
181	26
182	16
183	11
184	7
185	41
186	35
187	26
188	9
189	15
190	3
191	1
192	2
193	22
194	27
195	20
196	11
197	12
198	10
199	9
200	17
DEPOT_SECTION
1
-1
EOF
