experiment/data/lkh-res/Vrp-Set-CMT-n200/Vrp-Set-CMT-n200-lkh/0.lkh1.tour
NAME : 0.132578.tour
COMMENT : Length = 132578
COMMENT : Found by LKH-3 [Keld Helsgaun] Tue Apr  9 01:07:33 2024
TYPE : TOUR
DIMENSION : 215
TOUR_SECTION
1
4
182
74
146
25
145
75
108
64
50
183
160
68
202
126
99
46
28
84
124
14
100
180
168
66
35
210
61
150
52
36
179
79
9
103
177
47
176
128
204
40
110
164
149
93
136
147
19
148
107
45
56
205
55
121
172
48
174
83
122
141
95
22
173
140
153
201
96
33
73
119
57
26
111
10
162
98
188
77
209
30
16
155
125
21
38
89
139
167
123
37
156
175
211
113
197
2
192
159
195
194
34
106
97
189
207
169
51
170
58
190
76
163
32
132
81
11
78
130
72
101
215
151
53
12
171
85
135
86
165
166
39
120
82
214
67
187
94
23
142
92
143
115
157
29
65
102
87
3
158
208
31
49
60
104
6
80
154
59
112
5
88
213
196
198
137
200
43
114
69
144
138
90
186
63
117
24
184
212
71
129
20
178
134
15
70
109
181
133
8
27
206
54
199
193
185
44
191
42
91
116
161
105
203
127
18
13
131
41
152
118
17
62
7
-1
EOF
